p edge 38 152
e 1 15
e 1 16
e 1 23
e 1 36
e 2 19
e 2 25
e 2 30
e 2 36
e 3 6
e 3 9
e 3 26
e 3 32
e 4 18
e 4 20
e 4 24
e 4 32
e 5 3
e 5 8
e 5 29
e 5 34
e 6 3
e 6 10
e 6 33
e 6 36
e 7 6
e 7 9
e 7 14
e 7 29
e 8 2
e 8 15
e 8 31
e 8 34
e 9 7
e 9 11
e 9 30
e 9 37
e 10 4
e 10 13
e 10 18
e 10 26
e 11 15
e 11 27
e 11 28
e 11 30
e 12 8
e 12 11
e 12 21
e 12 33
e 13 18
e 13 19
e 13 28
e 13 38
e 14 9
e 14 18
e 14 27
e 14 33
e 15 1
e 15 10
e 15 34
e 15 35
e 16 2
e 16 12
e 16 23
e 16 35
e 17 9
e 17 13
e 17 18
e 17 35
e 18 4
e 18 21
e 18 27
e 18 30
e 19 3
e 19 9
e 19 18
e 19 18
e 20 24
e 20 28
e 20 36
e 20 37
e 21 13
e 21 14
e 21 26
e 21 36
e 22 9
e 22 23
e 22 24
e 22 34
e 23 24
e 23 30
e 23 34
e 23 36
e 24 19
e 24 20
e 24 22
e 24 35
e 25 13
e 25 14
e 25 32
e 25 34
e 26 1
e 26 18
e 26 23
e 26 37
e 27 9
e 27 20
e 27 32
e 27 38
e 28 1
e 28 10
e 28 19
e 28 22
e 29 1
e 29 14
e 29 32
e 29 32
e 30 10
e 30 16
e 30 21
e 30 27
e 31 13
e 31 15
e 31 34
e 31 35
e 32 11
e 32 17
e 32 20
e 32 29
e 33 4
e 33 5
e 33 19
e 33 28
e 34 5
e 34 19
e 34 22
e 34 35
e 35 12
e 35 20
e 35 27
e 35 38
e 36 3
e 36 9
e 36 12
e 36 19
e 37 7
e 37 10
e 37 23
e 37 25
e 38 3
e 38 6
e 38 16
e 38 17
